%nprocshared=40
%mem=120GB
# opt=(gdiis,maxstep=10) B3LYP/6-311g(d,p) em=gd3bj scrf=(solvent=diethylether) nosymm

1GRN_opt

-1 1
 C                0    2.47922800   -3.17727100   -3.77218000
 O                0    3.64052900   -3.56346500   -3.84570500
 N                0    1.89516700   -2.83581900   -2.59264900
 C                0    3.55802300   -1.74082100   -0.98339100
 O                0    4.29800300   -1.85269300   -0.01553100
 H                0    0.91907400   -2.56097900   -2.58662600
 N                0    3.53098200   -0.60376300   -1.74810200
 C                0    3.88932900    1.43042600   -0.26940500
 O                0    4.65132800    2.25195100    0.23596800
 H                0    2.79786800   -0.50543300   -2.43788100
 N                0    2.62239000    1.22254600    0.16214700
 C               -1    1.97921700    2.03153100    1.18821100
 C                0    1.11496600    3.19135700    0.64300800
 O                0    0.78429500    4.09471700    1.41212500
 H                0    2.06217600    0.53320600   -0.32013500
 H                0    1.30304800    1.43026400    1.78320400
 H                0    2.74301600    2.47128500    1.82586600
 N                0    0.67570700    3.14881900   -0.63929900
 C                0   -1.61396500    4.30841000   -0.63445000
 O                0   -2.26833200    5.30895500   -0.87744900
 N                0   -0.15682600    0.78297600   -5.10058300
 H                0    0.95802700    2.38676500   -1.25113000
 H                0    0.60157900    0.62073000   -4.42785800
 H                0   -0.87685600   -0.01062200   -4.97773300
 H                0    0.18389000    0.79795300   -6.06962700
 N                0   -2.08734600    3.25926700    0.10542900
 C                0   -3.01640200    3.55069300    2.41659300
 O                0   -3.93598600    3.48891900    3.22608300
 O                0   -3.97065600    1.49622700   -0.58161700
 H                0   -1.45946200    2.48733300    0.33385700
 H                0   -3.24833000    2.00215900   -0.99914500
 N                0   -1.72097500    3.76394300    2.70904400
 C                0   -0.23961600    2.78334700    4.46630800
 S                0   -1.06927600    1.16219600    4.70613400
 H                0   -1.04340400    3.84795300    1.96308300
 H                0    0.57187300    2.66933800    3.74894400
 H                0    0.19881700    3.03281200    5.43401900
 H                0   -1.32911900    0.97181400    3.39200500
 C                0   -0.02328900    2.53313500   10.17340500
 C                0   -0.63227100    2.03597900    9.01769700
 C                0    1.15021600    1.91529200   10.62164800
 C                0   -0.09272400    0.94553800    8.33544200
 C                0    1.69259600    0.82835600    9.94142100
 C                0    1.07198400    0.33349500    8.79418100
 H                0   -1.53919800    2.50389800    8.64862500
 H                0    1.64157900    2.29197400   11.51339100
 H                0   -0.58219000    0.57529800    7.44265900
 H                0    2.60341800    0.36560600   10.30536600
 H                0    1.48529300   -0.51849800    8.26700400
 O                0   -0.33917200    1.46945100   -7.82726900
 N                0   -1.62356200   -0.39146900   -7.96731500
 H                0   -2.56238500   -0.75313700   -8.02798800
 C                0   -2.92895100   -6.47495900   -7.28456400
 C                0   -3.00078900   -5.67256800   -5.99659700
 N                0   -1.82966600   -5.43121200   -5.38526000
 O                0   -4.08386600   -5.23211300   -5.59849800
 H                0   -3.81428600   -7.11137400   -7.33424700
 H                0   -2.04416200   -7.11745100   -7.30137000
 H                0   -1.76648700   -4.71270100   -4.64757900
 H                0   -0.97613000   -5.77033700   -5.79756700
 C                0    6.39137600    0.86967800    3.65528400
 N                0    5.41461900    0.71326000    2.73285000
 O                0    6.44577100    0.20807200    4.68939500
 H                0    4.73551700   -0.03033100    2.85088300
 H                0    5.37380500    1.27086200    1.88973000
 P                0   -0.84953300   -0.45751300    0.94569800
 P                0   -0.30513900    0.01079500   -1.85130300
 P                0   -1.91790000   -1.96881600   -3.46172000
 C                0    1.23459800   -1.00769900    2.42812700
 O                0   -0.05224500   -1.45134500    1.92638300
 C                0    1.88526400   -2.10627400    3.24022200
 O                0    3.23464900   -1.64957700    3.47649300
 C                0    1.24155900   -2.33008400    4.61734900
 O                0    1.22717600   -3.71197000    4.98899500
 C                0    2.23239700   -1.64654300    5.58318600
 O                0    2.18001400   -2.17628300    6.88986000
 O                0   -0.92556300    0.94646200    1.47095100
 O                0    0.85144200    0.75399100   -2.46401000
 O                0   -3.11575500   -1.67488200   -2.52566700
 O                0   -2.14164200   -1.12887900    0.52136000
 O                0   -1.64512500    0.71641000   -1.69798700
 O                0   -1.56680700   -3.42374800   -3.58175900
 O                0    0.18350300   -0.44492400   -0.35264600
 O                0   -0.54369500   -1.38735300   -2.56667400
 O                0   -1.90565400   -1.10636500   -4.71513600
 H                0    1.91226400   -3.10102700    6.78123900
 H                0    0.23831700   -1.90393000    4.67847200
 H                0    1.90017400   -3.04275600    2.67434400
 H                0    0.41755900   -4.11317400    4.66023000
 H                0    2.00850000   -0.57909700    5.64395400
 H                0    1.08616700   -0.12903000    3.05702500
 H                0    1.89278900   -0.76968300    1.59374500
 Mg               0   -3.25377200   -0.43182700   -1.03371000
 O                0   -4.85279800   -1.34527900   -0.04880700
 H                0   -4.47802700   -1.90233500    0.64638100
 H                0   -5.47014600   -1.89629000   -0.54386400
 O                0   -5.01334400   -2.83761000   -4.38723400
 H                0   -4.47473300   -2.58617100   -3.62223800
 H                0   -4.62822900   -3.67506900   -4.70152700
 C               -1   -2.90824700   -5.50068900   -8.47090100
 H                0   -2.89699000   -6.03765300   -9.42229400
 H                0   -3.79277300   -4.86110100   -8.44560800
 H                0   -2.02389100   -4.85906600   -8.43087300
 C               -1   -0.56113400   -1.31824700   -7.63475700
 H                0   -0.70537700   -1.71406800   -6.62821400
 H                0   -0.55660200   -2.14718800   -8.34608200
 H                0    0.39041700   -0.79668600   -7.71076600
 C                0   -1.44036600    0.93700400   -8.02821200
 C               -1   -2.67096900    1.75268900   -8.31860000
 H                0   -2.97822400    2.27044900   -7.40688200
 H                0   -2.42550000    2.51272800   -9.06049300
 H                0   -3.50871900    1.15343700   -8.67486000
 C                0    1.59131800   -3.00083800   -4.98924200
 H                0    1.71015100   -1.98105700   -5.36820800
 H                0    1.92178100   -3.68806500   -5.76738500
 H                0    0.53798600   -3.16495400   -4.75784200
 C               -1    2.59828300   -2.93554100   -1.33955300
 H                0    1.87475200   -2.99890100   -0.52639700
 H                0    3.23284300   -3.82120500   -1.32066600
 C               -1    4.37110100    0.58227900   -1.46443900
 H                0    5.38753700    0.26587400   -1.23670400
 H                0    4.38246300    1.21671300   -2.35018100
 C               -1   -0.17685400    4.20021800   -1.20914000
 H                0   -0.25989000    4.01996900   -2.27945700
 H                0    0.27056800    5.18220900   -1.05465000
 C                0   -4.04379400    1.96716800    0.78730900
 H                0   -5.09037100    2.06251700    1.06186600
 H                0   -3.56213700    1.23304000    1.43431100
 C               -1   -1.17280300    3.91437200    4.03838900
 H                0   -2.00716800    3.99470800    4.73575000
 H                0   -0.60593400    4.85064100    4.07426500
 C               -1   -3.31659700    3.32038800    0.91923400
 H                0   -3.92299500    4.14125700    0.53844100
 C               -1   -0.62089300    3.68910600   10.93741700
 H                0   -1.38673200    4.20027300   10.34897200
 H                0   -1.08945800    3.34459800   11.86699500
 H                0    0.14408400    4.42134800   11.21244800
 C                0    3.56159800   -1.86188000    4.85619300
 H                0    3.91087700   -2.88905900    5.02029500
 H                0    4.35195600   -1.16113200    5.12218100
 C               -1    7.45672400    1.91398800    3.33467100
 H                0    8.37615300    1.39401000    3.05746600
 H                0    7.17095100    2.58077500    2.52066900
 H                0    7.65810500    2.49513300    4.23399000
 C                0   -0.75888000    2.11248100   -4.80311900
 H                0   -1.12364400    2.07948500   -3.77842500
 H                0   -1.61325500    2.23841600   -5.46508000
 C               -1    0.28362700    3.19024100   -5.02120100
 H                0    0.62179900    3.18493400   -6.05878500
 H                0   -0.13507800    4.17637000   -4.80819100
 H                0    1.14168500    3.03553300   -4.36207300


