%nprocshared=40
%mem=120GB
# M062X/6-311+g(2d,p) em=gd3 scrf=(solvent=diethylether) nosymm

2QRZ_opt

-1 1
 C                0    2.76547500   -3.27105000   -3.76040600
 O                0    3.93309100   -3.63870100   -3.68685500
 N                0    2.04578400   -2.90096400   -2.66872400
 C                0    3.52860200   -1.72715200   -0.95141300
 O                0    4.20011300   -1.80070100    0.06882600
 H                0    1.08150300   -2.61561000   -2.78362200
 N                0    3.54377300   -0.61208500   -1.74789800
 C                0    3.88836300    1.42357400   -0.26546200
 O                0    4.65703400    2.23357900    0.24987200
 H                0    2.87490700   -0.55351800   -2.50219300
 N                0    2.61890500    1.22415500    0.15844700
 C               -1    1.97915500    2.03153000    1.18817000
 C                0    1.11642000    3.19653800    0.64886700
 O                0    0.78663900    4.09528500    1.42495000
 H                0    2.05503400    0.55190200   -0.34299300
 H                0    1.30210000    1.42781500    1.77893300
 H                0    2.74565700    2.46496200    1.82675700
 N                0    0.68184800    3.15913200   -0.63334500
 C                0   -1.61544100    4.30875000   -0.63961500
 O                0   -2.27491000    5.30316700   -0.89626200
 N                0   -0.21778300    0.79891500   -5.11370200
 H                0    0.95681000    2.39239200   -1.24624200
 H                0    0.54915500    0.62530400   -4.45545500
 H                0   -0.95302600    0.01754900   -4.98740300
 H                0    0.12264400    0.80767200   -6.08327800
 N                0   -2.08230200    3.26532500    0.10949000
 C                0   -3.02294400    3.58755700    2.41138200
 O                0   -3.94871200    3.56214600    3.21558200
 O                0   -3.90749100    1.44836800   -0.54922400
 H                0   -1.44957900    2.49882200    0.35161300
 H                0   -3.16422100    1.93275800   -0.95550700
 N                0   -1.72411000    3.78344800    2.70736300
 C                0   -0.27701400    2.74956500    4.45820800
 S                0   -1.14164900    1.13336600    4.57199700
 H                0   -1.04312000    3.85330500    1.96290700
 H                0    0.56717200    2.65633100    3.77583200
 H                0    0.11520600    2.94493300    5.45757700
 H                0   -1.32510400    1.01041600    3.23728900
 C                0   -0.53612700    2.59765700    9.89970500
 C                0   -1.59365800    2.37376900    9.01187700
 C                0    0.58662400    1.76728700    9.81769500
 C                0   -1.53792900    1.34303400    8.07671900
 C                0    0.64730100    0.73395100    8.88442700
 C                0   -0.41733700    0.51638600    8.01291900
 H                0   -2.46801800    3.01551600    9.05287400
 H                0    1.42109500    1.93382100   10.49157300
 H                0   -2.36140200    1.19155500    7.38954500
 H                0    1.51927100    0.09415000    8.82127300
 H                0   -0.35749900   -0.28692800    7.29130600
 O                0   -0.33690200    1.46499200   -7.84693500
 N                0   -1.62766700   -0.39303500   -7.95841800
 H                0   -2.56839600   -0.75232200   -8.00157700
 C                0   -4.09918500   -4.94258900   -7.69055700
 C                0   -3.78656600   -4.36880200   -6.31414600
 N                0   -2.66466000   -4.80103400   -5.72201000
 O                0   -4.57080500   -3.56077800   -5.79814000
 H                0   -4.58635000   -4.13819400   -8.24588000
 H                0   -4.86048200   -5.71732100   -7.54913900
 H                0   -2.25402600   -4.31623100   -4.91073700
 H                0   -2.03876600   -5.39969200   -6.23433900
 C                0    6.36148400    0.91171500    3.69094400
 N                0    5.38567300    0.74283000    2.76937200
 O                0    6.39046600    0.29274400    4.75174900
 H                0    4.69128700    0.01900700    2.91334600
 H                0    5.35676200    1.26926700    1.90569900
 P                0   -0.90895100   -0.45834500    0.84268900
 P                0   -0.25273200    0.03126000   -1.93962600
 P                0   -1.68101800   -2.03151900   -3.53737100
 C                0    1.14084600   -1.02419900    2.36491700
 O                0   -0.14280100   -1.45549000    1.84629600
 C                0    1.72343000   -2.08122600    3.27920600
 O                0    3.06458400   -1.62723400    3.57135000
 C                0    0.99051800   -2.19950500    4.62187600
 O                0    0.97585800   -3.54295900    5.11587400
 C                0    1.89806900   -1.40922900    5.58558000
 O                0    1.74161900   -1.80053000    6.93237200
 O                0   -0.91961100    0.95863800    1.34227300
 O                0    0.88380400    0.88424700   -2.43448100
 O                0   -2.72740500   -2.01413100   -2.40404200
 O                0   -2.22384900   -1.08962800    0.44083100
 O                0   -1.64579900    0.63998200   -1.85181900
 O                0   -1.17371200   -3.40484000   -3.89211000
 O                0    0.14031100   -0.50840600   -0.44633000
 O                0   -0.29907500   -1.31073400   -2.79890100
 O                0   -1.99201900   -1.07133400   -4.68235900
 H                0    1.51147500   -2.74085500    6.90022100
 H                0   -0.02089400   -1.79242200    4.57523600
 H                0    1.75956600   -3.05176400    2.77565700
 H                0    0.19878700   -3.99099000    4.76943900
 H                0    1.66224800   -0.34534900    5.51843800
 H                0    0.99981900   -0.10497000    2.93297600
 H                0    1.83557500   -0.85911300    1.54206100
 Mg               0   -3.25651600   -0.51086000   -1.21292500
 O                0   -5.15177800   -0.80726700   -1.87386900
 H                0   -5.97441700   -0.35232100   -1.68099700
 H                0   -5.31912700   -1.61666600   -2.43955200
 O                0   -5.10503100   -3.11107100   -3.11566300
 H                0   -4.18375200   -3.04516500   -2.79550600
 H                0   -4.98783800   -3.21816800   -4.08365100
 C               -1   -2.90824600   -5.50067400   -8.47086400
 H                0   -3.21773600   -5.79880400   -9.47500300
 H                0   -2.11440600   -4.75652900   -8.57454900
 H                0   -2.48571100   -6.38931100   -7.99397400
 C               -1   -0.56114300   -1.31824700   -7.63476700
 H                0   -0.69039800   -1.71293400   -6.62525900
 H                0   -0.56374700   -2.15044600   -8.34217900
 H                0    0.38922500   -0.79666400   -7.72313100
 C                0   -1.44137700    0.93500100   -8.03390500
 C               -1   -2.67095500    1.75267400   -8.31858900
 H                0   -2.97108800    2.27511300   -7.40690400
 H                0   -2.42815800    2.50920400   -9.06557900
 H                0   -3.51273800    1.15408200   -8.66736300
 C                0    2.01565900   -3.15498000   -5.07444200
 H                0    2.23255700   -2.17846000   -5.51929100
 H                0    2.38316000   -3.92099800   -5.75719600
 H                0    0.93682700   -3.25095000   -4.93903000
 C               -1    2.59828900   -2.93553100   -1.33954800
 H                0    1.78357500   -2.94333800   -0.61487300
 H                0    3.21518000   -3.82218700   -1.19519500
 C               -1    4.37111100    0.58227700   -1.46444000
 H                0    5.39358600    0.28090300   -1.24183500
 H                0    4.36917300    1.21667600   -2.35007300
 C               -1   -0.17684000    4.20019600   -1.20911100
 H                0   -0.25731000    4.00985200   -2.27806400
 H                0    0.26461800    5.18682700   -1.06519700
 C                0   -3.99983900    1.93962200    0.80734300
 H                0   -5.05078300    2.00980700    1.07561200
 H                0   -3.49940500    1.23202700    1.46843300
 C               -1   -1.17281600    3.91436500    4.03837700
 H                0   -2.00632800    4.01153000    4.73489800
 H                0   -0.57971600    4.83356300    4.08190300
 C               -1   -3.31657500    3.32039900    0.91923200
 H                0   -3.94269100    4.11640000    0.51907600
 C               -1   -0.62089100    3.68909200   10.93739700
 H                0   -1.20747700    4.53677700   10.57588700
 H                0   -1.10306800    3.32407400   11.85081000
 H                0    0.37099700    4.05297000   11.21452900
 C                0    3.28044200   -1.68468800    4.98784700
 H                0    3.62195200   -2.68311400    5.28887700
 H                0    4.04529700   -0.95061300    5.23933500
 C               -1    7.45673600    1.91398900    3.33467300
 H                0    8.37672100    1.36007000    3.13335300
 H                0    7.21303400    2.52353100    2.46334600
 H                0    7.63468800    2.55789100    4.19647100
 C                0   -0.78972700    2.14187700   -4.81641800
 H                0   -1.16589300    2.11358600   -3.79601100
 H                0   -1.63390400    2.29057200   -5.48692500
 C               -1    0.28363000    3.19026300   -5.02120000
 H                0    0.63328800    3.17855800   -6.05508600
 H                0   -0.10941200    4.18720600   -4.80967700
 H                0    1.12836300    3.00864700   -4.35217600


