%nprocshared=40
%mem=120GB
# M062X/6-311+g(2d,p) em=gd3 scrf=(solvent=diethylether) nosymm

2QRZ_opt

-1 1
 C                0    2.57939700   -3.44261700   -3.72810300
 O                0    3.59051600   -4.13697400   -3.66856300
 N                0    1.99672200   -2.86524800   -2.64946300
 C                0    3.54962300   -1.73673600   -0.97145200
 O                0    4.25529300   -1.82772300    0.02360100
 H                0    1.19397500   -2.24338900   -2.80520600
 N                0    3.54870500   -0.61328400   -1.75698600
 C                0    3.88097600    1.42893500   -0.27185000
 O                0    4.65690800    2.23508500    0.24405700
 H                0    2.86631100   -0.53753700   -2.49797100
 N                0    2.61455800    1.23123000    0.15041200
 C               -1    1.97921800    2.03153400    1.18820600
 C                0    1.11567800    3.21326900    0.66743600
 O                0    0.79195200    4.09975300    1.46764000
 H                0    2.02832200    0.61603700   -0.40060300
 H                0    1.30332800    1.41851200    1.77210200
 H                0    2.75051800    2.45159600    1.82989000
 N                0    0.69452400    3.18987200   -0.60968800
 C                0   -1.59685600    4.34185600   -0.60756800
 O                0   -2.23928000    5.35946700   -0.81722900
 N                0   -0.74479800    0.93831100   -5.29930600
 H                0    0.93529500    2.40314100   -1.23819500
 H                0   -0.18456200    0.38454400   -4.62598400
 H                0   -1.67220800    0.41931000   -5.37579600
 H                0   -0.26498100    0.92870500   -6.20093900
 N                0   -2.07662900    3.28456400    0.11300300
 C                0   -3.01946000    3.53609300    2.41908500
 O                0   -3.92738500    3.41463700    3.23532400
 O                0   -3.90342200    1.56946400   -0.67258000
 H                0   -1.46136300    2.48475000    0.29815800
 H                0   -3.21166100    2.14281300   -1.05206700
 N                0   -1.73474900    3.82407900    2.70594100
 C                0   -0.23198000    2.75709500    4.37510400
 S                0   -1.02528100    1.10012400    4.32905800
 H                0   -1.05835600    3.93036800    1.95909700
 H                0    0.62254600    2.76171200    3.70066700
 H                0    0.13559700    2.87560700    5.39559800
 H                0   -1.14769000    1.02415700    2.97910500
 C                0   -0.44648500    2.67114500    9.83640300
 C                0   -1.40813700    2.53524600    8.82967900
 C                0    0.66410200    1.82050400    9.81039800
 C                0   -1.27417100    1.56863400    7.83525100
 C                0    0.80320600    0.85212600    8.81757800
 C                0   -0.16845300    0.71922400    7.82779600
 H                0   -2.27141000    3.19312000    8.82570200
 H                0    1.42701200    1.91928000   10.57611900
 H                0   -2.02695100    1.48117100    7.06081200
 H                0    1.66864500    0.19964000    8.80468200
 H                0   -0.05472300   -0.03909200    7.06421300
 O                0   -0.29990700    1.35414000   -8.38981200
 N                0   -1.66022000   -0.40823000   -7.91231200
 H                0   -2.52145600   -0.60011100   -7.40648100
 C                0   -2.36310000   -5.75689600   -7.05878400
 C                0   -2.65224300   -4.63075700   -6.11879800
 N                0   -1.74233300   -4.02540900   -5.42587500
 O                0   -3.91252300   -4.28836100   -6.04096000
 H                0   -2.83647800   -6.64826300   -6.63470500
 H                0   -1.28753200   -5.93655700   -7.07850800
 H                0   -2.08610500   -3.25061400   -4.72668600
 H                0   -0.78233200   -4.32924500   -5.50190600
 C                0    6.41524400    0.82166400    3.57796900
 N                0    5.49501900    0.65152400    2.60258400
 O                0    6.44604700    0.13612700    4.59776000
 H                0    4.83389500   -0.11533100    2.65919200
 H                0    5.44789200    1.25253400    1.78908700
 P                0   -0.79961300   -0.54341500    0.49237700
 P                0   -0.07826100    0.14980600   -2.24847600
 P                0   -3.73291800   -1.16887100   -4.36819400
 C                0    1.15630200   -1.09817900    2.13924200
 O                0   -0.06791600   -1.56280500    1.51850900
 C                0    1.77788000   -2.19794500    2.97818100
 O                0    3.13082600   -1.76913900    3.26631900
 C                0    1.07266100   -2.36329400    4.32770800
 O                0    1.15046100   -3.69917300    4.83746200
 C                0    1.94345900   -1.51077200    5.26779800
 O                0    1.78241300   -1.84901400    6.62920800
 O                0   -0.87906600    0.84519100    1.07656700
 O                0    0.97176800    1.23894900   -2.40623100
 O                0   -4.18602100   -0.34740500   -3.15263800
 O                0   -2.10451200   -1.18502000    0.04281000
 O                0   -1.52396100    0.66868100   -2.08825500
 O                0   -2.98758900   -2.44369800   -3.94227800
 O                0    0.25968600   -0.56245600   -0.74780300
 O                0    0.07337700   -0.94971000   -3.29381200
 O                0   -3.08209800   -0.34926400   -5.48825900
 H                0    1.61184300   -2.80193800    6.63774200
 H                0    0.03572700   -2.02263200    4.29226000
 H                0    1.80137400   -3.14075100    2.42421600
 H                0    0.42180500   -4.20968800    4.47298000
 H                0    1.67833100   -0.45782300    5.15632200
 H                0    0.92318500   -0.24718200    2.77941000
 H                0    1.87317200   -0.79782700    1.38154500
 Mg               0   -3.18476400   -0.25715900   -1.44746400
 O                0   -4.71144200   -1.42153000   -0.57832100
 H                0   -4.30875600   -2.11378200   -0.03932500
 H                0   -5.27214600   -1.84448800   -1.23890900
 O                0   -5.09223700   -1.85203100   -5.05156400
 H                0   -5.56460100   -1.23592400   -5.62232800
 H                0   -4.08448900   -3.53459400   -5.42681400
 C               -1   -2.90821600   -5.50069100   -8.47087600
 H                0   -2.69097600   -6.35888600   -9.10776100
 H                0   -3.98734900   -5.34935300   -8.44938900
 H                0   -2.44337500   -4.61849700   -8.91669400
 C               -1   -0.56120600   -1.31821600   -7.63478100
 H                0   -0.49552900   -1.53292700   -6.56438700
 H                0   -0.70571900   -2.26423300   -8.16158000
 H                0    0.36715100   -0.86294800   -7.97307400
 C                0   -1.43146500    0.89388800   -8.21943500
 C               -1   -2.67093700    1.75268400   -8.31860100
 H                0   -3.41879800    1.45412100   -7.58134300
 H                0   -2.39436900    2.79515800   -8.17107700
 H                0   -3.11043600    1.64902000   -9.31443400
 C                0    1.87804300   -3.16567600   -5.04758600
 H                0    2.56408400   -2.61672800   -5.69695600
 H                0    1.66542200   -4.11887200   -5.53812200
 H                0    0.96876000   -2.57907400   -4.92005700
 C               -1    2.59829100   -2.93555100   -1.33955400
 H                0    1.82030100   -2.94792400   -0.57481200
 H                0    3.20727700   -3.83324500   -1.25998400
 C               -1    4.37109400    0.58228000   -1.46443300
 H                0    5.39111700    0.28063700   -1.23133100
 H                0    4.37577700    1.21510300   -2.35107800
 C               -1   -0.17685500    4.20021800   -1.20913900
 H                0   -0.28574200    3.94122000   -2.26145700
 H                0    0.26344900    5.19629400   -1.14002800
 C                0   -3.99683700    1.95068000    0.72157800
 H                0   -5.04741500    1.99043200    0.99629100
 H                0   -3.48492800    1.19897900    1.32343400
 C               -1   -1.17280700    3.91437100    4.03838700
 H                0   -2.00169800    3.94300400    4.74646500
 H                0   -0.61283100    4.85076100    4.12197700
 C               -1   -3.31659000    3.32038900    0.91923600
 H                0   -3.93396900    4.13717300    0.54653800
 C               -1   -0.62089500    3.68910600   10.93741600
 H                0   -1.15793300    4.57116200   10.58137900
 H                0   -1.19616700    3.26965700   11.76991300
 H                0    0.34303300    4.01299200   11.33606700
 C                0    3.33619800   -1.77083700    4.68652500
 H                0    3.70129100   -2.74884400    5.02447800
 H                0    4.08072300   -1.01046100    4.92015100
 C               -1    7.45672200    1.91398700    3.33467000
 H                0    8.40941700    1.43333400    3.09896800
 H                0    7.18923200    2.58613700    2.51805500
 H                0    7.58623000    2.48424700    4.25473600
 C                0   -0.97797400    2.35483600   -4.87902300
 H                0   -1.34102400    2.31260000   -3.85423200
 H                0   -1.77988400    2.73569000   -5.51257200
 C               -1    0.28363600    3.19022700   -5.02119700
 H                0    0.63651000    3.18910500   -6.05608000
 H                0    0.07543400    4.22443400   -4.73906100
 H                0    1.06419800    2.80101300   -4.36551500



