%nprocshared=40
%mem=120GB
# M062X/6-311+g(2d,p) em=gd3 scrf=(solvent=diethylether) nosymm

1GRN_opt

-1 1
 C                0    2.36235900   -3.04491800   -3.76605100
 O                0    3.50531800   -3.46496100   -3.92493700
 N                0    1.82406600   -2.79638700   -2.54743700
 C                0    3.59093300   -1.75158100   -1.01646200
 O                0    4.39469100   -1.90185200   -0.10458400
 H                0    0.87814400   -2.40187700   -2.50252100
 N                0    3.52635700   -0.59862500   -1.75260400
 C                0    3.88733000    1.43358800   -0.27182300
 O                0    4.64858400    2.26456500    0.22537900
 H                0    2.70516800   -0.42894900   -2.33022700
 N                0    2.62789900    1.21676800    0.16946000
 C               -1    1.97921900    2.03153400    1.18820600
 C                0    1.11905500    3.18899800    0.63240600
 O                0    0.79990900    4.10087500    1.39901100
 H                0    2.05557800    0.53279500   -0.30983700
 H                0    1.30039300    1.43038200    1.78049900
 H                0    2.73958400    2.47753400    1.82562800
 N                0    0.68447200    3.14911700   -0.64974800
 C                0   -1.62455800    4.29268300   -0.63686900
 O                0   -2.27282400    5.30509700   -0.87646300
 N                0   -0.19524100    0.79518400   -5.03306400
 H                0    0.92436000    2.36173600   -1.24814900
 H                0    0.52451900    0.60393900   -4.30984700
 H                0   -0.95404500    0.08087000   -4.97484700
 H                0    0.18136200    0.79366700   -5.98783700
 N                0   -2.09052700    3.26014100    0.11080800
 C                0   -3.01597500    3.62382700    2.41109600
 O                0   -3.94445300    3.68323800    3.21321300
 O                0   -4.23690800    1.42278500   -0.40853400
 H                0   -1.50488700    2.43722400    0.24684900
 H                0   -4.76488700    2.01757400   -0.95288700
 N                0   -1.71135600    3.73741800    2.70954000
 C                0   -0.17917100    2.83269400    4.45752500
 S                0   -0.90678100    1.15807900    4.66533100
 H                0   -1.03017800    3.75156800    1.96148700
 H                0    0.64218200    2.77873600    3.74439800
 H                0    0.23722200    3.09401600    5.43183300
 H                0   -1.14856800    0.97333900    3.34214000
 C                0   -0.00430600    2.56284800   10.14569200
 C                0   -0.59675500    2.10071100    8.96532700
 C                0    1.16147900    1.93305600   10.59306100
 C                0   -0.04843000    1.03040300    8.26030200
 C                0    1.71320800    0.86476500    9.88973700
 C                0    1.10918100    0.40414500    8.72112500
 H                0   -1.49661400    2.58229500    8.59581400
 H                0    1.63986400    2.28491500   11.50173100
 H                0   -0.51968800    0.68594100    7.34647200
 H                0    2.61886200    0.39141100   10.25321800
 H                0    1.52665600   -0.43386600    8.17663700
 O                0   -0.34929200    1.45397600   -7.78998000
 N                0   -1.61482400   -0.41059100   -8.04953000
 H                0   -2.56079500   -0.77487900   -8.03292400
 C                0   -3.34102200   -4.04249400   -8.61865300
 C                0   -3.61218400   -3.27549400   -7.33974300
 N                0   -3.30214700   -3.86570100   -6.18533700
 O                0   -4.10219000   -2.12712300   -7.41850000
 H                0   -2.58422400   -3.46948100   -9.16409500
 H                0   -4.25489000   -3.96486500   -9.21293900
 H                0   -3.42805600   -3.39844600   -5.28471700
 H                0   -2.91115900   -4.79318400   -6.17929400
 C                0    6.40682200    0.84022200    3.60803400
 N                0    5.44757500    0.69207700    2.66666800
 O                0    6.45794300    0.14938200    4.62298700
 H                0    4.77745200   -0.06141700    2.76101500
 H                0    5.39328100    1.28035500    1.84454700
 P                0   -0.83111600   -0.39974000    0.84353000
 P                0   -0.22074000   -0.06707100   -1.95760100
 P                0   -3.60295300   -0.85333000   -4.26039600
 C                0    1.17548900   -1.09726400    2.33333000
 O                0   -0.14212800   -1.46246100    1.85631800
 C                0    1.76199400   -2.20462200    3.18037000
 O                0    3.13675200   -1.81909400    3.40336400
 C                0    1.10384100   -2.33750500    4.55914400
 O                0    1.04991100   -3.69890100    5.00351600
 C                0    2.10231000   -1.62637700    5.49552000
 O                0    2.02533100   -2.09121500    6.82639000
 O                0   -0.87938800    0.97721700    1.44889900
 O                0    1.00725900    0.63727900   -2.54086900
 O                0   -3.88820000    0.12811500   -3.14902400
 O                0   -2.15552400   -0.96844100    0.35478200
 O                0   -1.42603200    0.87355100   -1.75155100
 O                0   -3.98363500   -2.35326000   -3.83495700
 O                0    0.25687400   -0.42235200   -0.37307300
 O                0   -0.60930600   -1.38621300   -2.60047300
 O                0   -2.43935100   -0.67088200   -5.17410500
 H                0    1.73013300   -3.01156800    6.75778100
 H                0    0.11182500   -1.88379200    4.58766700
 H                0    1.72345900   -3.16056500    2.64910100
 H                0    0.21557400   -4.08240900    4.71883000
 H                0    1.90007800   -0.55150500    5.49914700
 H                0    1.09950800   -0.19119600    2.93589200
 H                0    1.84105400   -0.92442900    1.48846100
 Mg               0   -3.10755700   -0.07284600   -1.27245000
 O                0   -4.10301900   -1.91383800   -1.17856600
 H                0   -3.54209500   -2.45029300   -0.60367700
 H                0   -4.13049300   -2.33372400   -2.06748600
 O                0   -5.05511200   -0.98626200   -5.26631900
 H                0   -4.98330300   -2.00083400   -4.59635600
 H                0   -4.74762400   -1.30953200   -6.17602400
 C               -1   -2.90827200   -5.50070400   -8.47092700
 H                0   -2.77729300   -5.95198300   -9.45574100
 H                0   -1.95251000   -5.59102400   -7.94757700
 H                0   -3.65739200   -6.09055600   -7.93696200
 C               -1   -0.56113400   -1.31825100   -7.63474900
 H                0   -0.73378600   -1.66619500   -6.61543400
 H                0   -0.52878900   -2.18356700   -8.30037800
 H                0    0.39383500   -0.80217200   -7.70030900
 C                0   -1.44114600    0.92364000   -8.03833300
 C               -1   -2.67095100    1.75267600   -8.31858000
 H                0   -3.07143200    2.11650700   -7.36830800
 H                0   -2.38932000    2.61798000   -8.91794200
 H                0   -3.45364900    1.18844600   -8.82685100
 C                0    1.43757900   -2.75688100   -4.93522500
 H                0    1.92972400   -2.03759400   -5.59395800
 H                0    1.29006500   -3.67531900   -5.50787100
 H                0    0.47422200   -2.36127700   -4.61441300
 C               -1    2.59830000   -2.93553800   -1.33955300
 H                0    1.92266400   -3.01030500   -0.48698200
 H                0    3.22613900   -3.82526400   -1.37868600
 C               -1    4.37109800    0.58227700   -1.46443200
 H                0    5.38417400    0.25900900   -1.23289700
 H                0    4.38880400    1.21912000   -2.34880800
 C               -1   -0.17685500    4.20021700   -1.20913900
 H                0   -0.25144800    4.03691600   -2.28238700
 H                0    0.26102000    5.18214000   -1.03083300
 C                0   -4.03261500    1.96300700    0.91530700
 H                0   -4.98716200    2.05255100    1.43013600
 H                0   -3.41625900    1.22483600    1.42444100
 C               -1   -1.17280700    3.91437200    4.03838800
 H                0   -2.01320700    3.94772400    4.73240900
 H                0   -0.65470400    4.87929200    4.08652000
 C               -1   -3.31659100    3.32038900    0.91923600
 H                0   -3.94783100    4.11408600    0.51920700
 C               -1   -0.62089600    3.68910900   10.93742000
 H                0   -1.16861000    4.37749800   10.28987500
 H                0   -1.32951900    3.30426700   11.67890300
 H                0    0.13924500    4.25880400   11.47674000
 C                0    3.43418200   -1.92182000    4.80087700
 H                0    3.76188800   -2.93774900    5.05639800
 H                0    4.23387800   -1.21679900    5.02668200
 C               -1    7.45672200    1.91398700    3.33467000
 H                0    8.40413900    1.41834600    3.10991600
 H                0    7.19390000    2.56908600    2.50293500
 H                0    7.59453000    2.50590500    4.24007700
 C                0   -0.77532500    2.14252800   -4.76051900
 H                0   -1.12237400    2.13028100   -3.72869600
 H                0   -1.63518400    2.26434800   -5.41620100
 C               -1    0.28362100    3.19027000   -5.02120600
 H                0    0.59879700    3.16128400   -6.06573600
 H                0   -0.10902000    4.18832200   -4.81431800
 H                0    1.15238200    3.02829100   -4.37805300


