%nprocshared=40
%mem=120GB
# M062X/6-311+g(2d,p) em=gd3 scrf=(solvent=diethylether) nosymm

1GRN_opt

-1 1
 C                0   59.34548100    0.42706100   32.25603300
 O                0   60.46796000   -0.05511900   32.12629800
 N                0   58.83307200    0.80647400   33.45207200
 C                0   60.55342400    1.87655200   35.02003400
 O                0   61.31452700    1.75494800   35.97134400
 H                0   57.89084000    1.21021200   33.48057000
 N                0   60.51815600    3.01682000   34.26006400
 C                0   60.88385500    5.04071100   35.75471700
 O                0   61.65670800    5.84778100   36.27098700
 H                0   59.74530200    3.14592000   33.61786300
 N                0   59.61636500    4.83991800   36.18103600
 C               -1   58.96699300    5.65014900   37.20175200
 C                0   58.10257900    6.80923400   36.65083600
 O                0   57.77741400    7.71696300   37.42011000
 H                0   59.04017800    4.17669800   35.67924400
 H                0   58.28785200    5.05104400   37.79487400
 H                0   59.72664100    6.09372300   37.84176300
 N                0   57.66483700    6.76667300   35.36983000
 C                0   55.37328600    7.92730800   35.37876100
 O                0   54.71794300    8.92848100   35.13546800
 N                0   56.75448000    4.40702600   31.03272300
 H                0   57.90708800    5.98064600   34.76298000
 H                0   57.49114600    4.24338200   31.73783600
 H                0   56.02396300    3.64751400   31.14316000
 H                0   57.11814300    4.37896300   30.07318500
 N                0   54.90103000    6.88025400   36.12036200
 C                0   53.97184100    7.16836500   38.43051100
 O                0   53.05077000    7.11015100   39.23960500
 O                0   53.01191800    5.13292900   35.42148800
 H                0   55.52576600    6.10134300   36.33675100
 H                0   53.73439000    5.64385800   35.00803200
 N                0   55.26655400    7.38215100   38.72286800
 C                0   56.74634700    6.40179600   40.48329700
 S                0   55.91449500    4.78274400   40.72937100
 H                0   55.94668500    7.45152000   37.97717200
 H                0   57.55531600    6.28278200   39.76388400
 H                0   57.18776600    6.65604800   41.44847600
 H                0   55.68414800    4.57808800   39.40937300
 C                0   56.97260800    6.15312000   46.19155800
 C                0   56.36762800    5.65818400   45.03134600
 C                0   58.13936400    5.53032700   46.64668200
 C                0   56.90496000    4.56506200   44.35410600
 C                0   58.68059300    4.43897100   45.97019300
 C                0   58.06454400    3.94672500   44.82071600
 H                0   55.46656700    6.13198800   44.65499900
 H                0   58.62817600    5.90631900   47.53994800
 H                0   56.42089600    4.19820800   43.45700400
 H                0   59.58778000    3.97317900   46.33931800
 H                0   58.47729000    3.09340400   44.29511600
 O                0   56.62455600    5.08291400   28.29136600
 N                0   55.37540500    3.21967000   27.98878500
 H                0   54.44344900    2.85250700   27.87677700
 C                0   54.17969100   -2.86001400   28.72080900
 C                0   54.08610400   -2.05311400   29.99650600
 N                0   55.21087900   -1.87207600   30.69439300
 O                0   52.99915400   -1.53573200   30.30477700
 H                0   53.34394700   -3.56253900   28.69912000
 H                0   55.10933700   -3.43220300   28.67413200
 H                0   55.23023800   -1.16361000   31.44476700
 H                0   56.07441600   -2.27576100   30.37073800
 C                0   63.38925700    4.47995000   39.67673600
 N                0   62.40527700    4.31619900   38.76455300
 O                0   63.45793600    3.82254800   40.71339100
 H                0   61.72543100    3.57485300   38.89507000
 H                0   62.35101200    4.87366200   37.92140500
 P                0   56.19041500    3.19168300   36.97738800
 P                0   56.71225700    3.60122100   34.15258200
 P                0   54.56884400    1.56140100   32.36153100
 C                0   58.26912000    2.62539400   38.46476900
 O                0   56.97272800    2.20036000   37.98407600
 C                0   58.90894400    1.51845900   39.27389400
 O                0   60.26560400    1.95333100   39.51294300
 C                0   58.26046600    1.30070000   40.64902700
 O                0   58.22715900   -0.08195200   41.01980100
 C                0   59.25715600    1.97062000   41.61748000
 O                0   59.19496500    1.43977000   42.92384800
 O                0   56.07075700    4.58782800   37.52577900
 O                0   57.86870400    4.42453800   33.59624500
 O                0   53.64925500    2.07047200   33.47106100
 O                0   54.89655400    2.50442400   36.56461600
 O                0   55.39372400    4.37216700   34.35941300
 O                0   55.09676000    0.16868400   32.47062200
 O                0   57.21850700    3.21474800   35.70916900
 O                0   56.47730500    2.26465400   33.45345200
 O                0   54.89552300    2.48240800   31.21675000
 H                0   58.91273100    0.51965300   42.81261700
 H                0   57.26245500    1.73901600   40.70796000
 H                0   58.91116600    0.58284200   38.70640100
 H                0   57.41516400   -0.47210100   40.68363600
 H                0   59.04637100    3.04064900   41.67902700
 H                0   58.14571000    3.50828300   39.09420500
 H                0   58.92163000    2.85266300   37.62260500
 Mg               0   53.83184700    3.24757200   35.00400100
 O                0   52.25750200    2.21256600   35.97479400
 H                0   52.72496800    1.80496500   36.71836900
 H                0   51.98252800    1.48421300   35.40346300
 O                0   52.67448600    0.86776300   31.35067000
 H                0   52.09935600    0.76798700   32.11721300
 H                0   52.80988100   -0.05112000   30.99646000
 C               -1   54.07952900   -1.88207100   27.54264000
 H                0   54.10590900   -2.41276800   26.58842800
 H                0   53.14629000   -1.32013200   27.60175600
 H                0   54.90972500   -1.17075800   27.55893700
 C               -1   56.42664200    2.30037100   28.37878400
 H                0   56.27150300    1.95229400   29.40117200
 H                0   56.43076600    1.44021300   27.70647700
 H                0   57.38331000    2.81119100   28.29176400
 C                0   55.54238000    4.55291800   28.00571800
 C               -1   54.31680700    5.37130700   27.69494100
 H                0   53.88773300    5.73432500   28.63285500
 H                0   54.60769100    6.23891000   27.10296400
 H                0   53.55085200    4.80515000   27.16386400
 C                0   58.42539700    0.66514300   31.07218700
 H                0   58.82435300    1.49769100   30.48563500
 H                0   58.43822500   -0.21981600   30.43384100
 H                0   57.40369400    0.89205700   31.37147900
 C               -1   59.58605900    0.68307700   34.67398800
 H                0   58.89910900    0.59647500   35.51650900
 H                0   60.22642600   -0.19778600   34.64116300
 C               -1   61.35887700    4.20089700   34.54910200
 H                0   62.37615700    3.88237500   34.76885200
 H                0   61.36432000    4.84261700   33.66835200
 C               -1   56.81092200    7.81883600   34.80440100
 H                0   56.72782900    7.64166600   33.73353300
 H                0   57.25782500    8.80069300   34.96169900
 C                0   52.94442300    5.58945200   36.79538800
 H                0   51.89901400    5.68124500   37.07592100
 H                0   53.43125300    4.85119700   37.43457400
 C               -1   55.81497300    7.53299000   40.05193000
 H                0   54.98066100    7.61671100   40.74902900
 H                0   56.38384300    8.46832100   40.08568800
 C               -1   53.67117900    6.93900600   36.93277500
 H                0   53.06573400    7.76179400   36.55415000
 C               -1   56.36688300    7.30772400   46.95095800
 H                0   55.82975200    7.98470400   46.28289900
 H                0   55.65109500    6.95109900   47.69954200
 H                0   57.13196400    7.88243000   47.47770700
 C                0   60.58578800    1.74003000   40.89375300
 H                0   60.92381200    0.70950200   41.06120600
 H                0   61.38235100    2.43343500   41.16098700
 C               -1   64.44450000    5.53260600   39.34821200
 H                0   65.39518300    5.02319400   39.17537400
 H                0   64.19630700    6.13073100   38.47030300
 H                0   64.56727300    6.18502600   40.21371200
 C                0   56.19811900    5.77092300   31.27549100
 H                0   55.85405300    5.78896200   32.30810100
 H                0   55.33837300    5.89641100   30.62010200
 C               -1   57.27140300    6.80885900   30.99234000
 H                0   57.58321700    6.75402500   29.94853700
 H                0   56.88416900    7.81277700   31.17966300
 H                0   58.13754900    6.65156800   31.63984000




