%nprocshared=40
%mem=120GB
# M062X/6-311+g(2d,p) em=gd3 scrf=(solvent=diethylether) nosymm

1GRN_try

0 1
 C                0   29.35744800   38.85158400   54.51665700
 O                0   28.18071700   38.50171900   54.54864400
 N                0   30.37314000   37.97055000   54.30615500
 C                0   29.80846900   35.84812000   52.98505100
 O                0   29.33767100   34.71679700   53.01033700
 H                0   31.33975600   38.22827900   54.49982300
 N                0   30.12378800   36.49027600   51.82454300
 C                0   31.19986900   35.13909100   49.96888100
 O                0   31.15322700   34.63311900   48.84563900
 H                0   30.58298600   37.38693000   51.90352200
 N                0   32.24748700   35.01122200   50.80522000
 C               -1   33.33597000   34.09103300   50.55393200
 C                0   34.74580400   34.67957900   50.19374000
 O                0   35.59611600   33.87849000   49.80386900
 H                0   32.22708900   35.49546200   51.69180100
 H                0   33.48211000   33.45049200   51.42023500
 H                0   33.06391900   33.47072400   49.70232700
 N                0   35.00070600   36.01132200   50.32909100
 C                0   37.32646900   36.64892700   51.11834700
 O                0   38.18931500   37.52699900   51.21137400
 C                0   34.76724500   40.29993900   51.50768000
 N                0   33.54756200   40.16546000   52.35821500
 H                0   34.30618100   36.58994600   50.80513500
 H                0   35.40068700   39.44557900   51.74688300
 H                0   35.26531700   41.22055100   51.80094900
 H                0   33.17364300   39.19856600   52.22167300
 H                0   33.74686700   40.26167600   53.39072300
 H                0   32.85687200   40.86890500   52.10733600
 N                0   37.30265200   35.55618600   51.89818200
 C               -1   38.45996400   35.13294600   52.64591500
 C                0   38.58477000   33.56499000   52.60609300
 O                0   39.35422000   33.01890400   53.39022200
 O                0   38.16553600   36.97823600   54.24343900
 H                0   36.42675300   35.07671400   52.12166400
 H                0   39.34430100   35.55185900   52.16024100
 H                0   38.26914100   37.39456900   53.36886900
 N                0   37.82549700   32.91476900   51.69381600
 C                0   36.34982200   30.96103900   52.20302400
 S                0   36.35222200   30.83235100   54.03561600
 H                0   37.18843700   33.45532600   51.11820500
 H                0   35.53395500   31.61719800   51.90314500
 H                0   36.13796600   29.95332700   51.84118400
 H                0   36.30493100   32.16056100   54.25477100
 C                0   37.78320700   39.82437000   57.19662700
 C                0   38.99256100   40.63855400   56.77248500
 O                0   37.84846300   38.49856600   56.59700700
 H                0   36.87688500   40.25257400   56.77735500
 H                0   38.76547200   38.20838500   56.52832000
 H                0   39.91577000   40.19339300   57.15823900
 H                0   39.05655900   40.68846300   55.68382300
 H                0   38.91809500   41.65736600   57.15371000
 C                0   34.46709100   43.16564500   54.02905700
 O                0   34.77199000   43.07467600   52.83642300
 N                0   33.18808200   43.22793800   54.45687500
 H                0   33.02416800   43.10592200   55.45248600
 C                0   30.47923800   43.63004200   57.53750600
 C                0   31.41480600   42.44431200   57.49419400
 N                0   30.90895200   41.23789300   57.72947800
 O                0   32.62277700   42.62610500   57.23137900
 H                0   29.69203800   43.45006400   58.27378000
 H                0   29.97904500   43.68043000   56.56274100
 H                0   31.48311400   40.41826100   57.50063700
 H                0   29.90490600   41.12921500   57.84169800
 C                0   29.08760100   31.29350900   48.75580000
 N                0   29.74799500   32.17099900   49.54218900
 O                0   28.66438300   30.21151400   49.15267000
 H                0   29.98431400   31.93226600   50.49968500
 H                0   30.17678000   33.00034500   49.15034600
 O                0   28.04863900   40.76449700   57.65818500
 C               -1   28.45808000   38.32102800   59.92095000
 C                0   29.77115400   38.29908100   59.13934500
 C                0   30.59999100   37.05151100   59.42259900
 N                0   31.66817100   36.94724200   58.43450000
 C                0   32.11683400   35.80096900   57.93224500
 N                0   31.87169400   34.63315700   58.56551500
 N                0   32.76923600   35.79749200   56.78148100
 H                0   28.65905800   38.21801800   60.99178100
 H                0   27.85991400   37.44875100   59.63666900
 H                0   29.56314500   38.32825800   58.06504100
 H                0   30.36178600   39.18949500   59.37275300
 H                0   31.00727200   37.08751000   60.43908300
 H                0   29.96665400   36.16288000   59.34829300
 H                0   31.97924900   37.79707000   57.93897700
 H                0   31.69106900   34.62624200   59.55569600
 H                0   32.22402300   33.78015200   58.16148100
 H                0   32.81844700   36.63807200   56.20170400
 H                0   33.34928100   35.01077500   56.47238100
 P                0   34.29401600   34.13276000   54.05464900
 P                0   33.84045800   37.05439500   53.57659200
 P                0   33.81174900   39.28380500   56.08929700
 C                0   31.85964700   32.94776000   54.07958900
 O                0   33.24342700   32.97772800   53.68766900
 C                0   31.24611800   31.69291600   53.49392400
 O                0   31.32719600   31.76836600   52.05057400
 C                0   31.96511100   30.40834400   53.89949800
 O                0   31.03526200   29.33543300   53.95765000
 C                0   32.93766000   30.19885700   52.72946800
 O                0   33.31259800   28.83426700   52.56566100
 O                0   35.46949300   33.97431000   53.14814700
 O                0   33.32247400   37.49844900   52.21491100
 O                0   35.05598900   38.47628000   56.44451400
 O                0   34.54976000   34.15934600   55.55795700
 O                0   35.35632000   37.12962400   53.76860900
 O                0   32.54551500   39.08776700   56.88866100
 O                0   33.40814100   35.45542400   53.65870200
 O                0   33.08979500   37.72165800   54.75631600
 O                0   33.90833100   40.30974200   54.99318200
 H                0   34.06296200   28.66919900   53.14810700
 H                0   32.49156400   30.51994500   54.85414400
 H                0   30.19496400   31.64860500   53.78856300
 H                0   31.51215100   28.56175500   53.62310000
 H                0   33.80784400   30.83071000   52.87595400
 H                0   31.33998600   33.80815900   53.67268700
 H                0   31.77573300   32.94307200   55.17104500
 Mg               0   36.43793400   37.52405500   55.37398300
 O                0   34.39208400   40.76719100   57.66035900
 H                0   33.71399500   41.48338300   57.54638000
 H                0   35.24648300   41.22612200   57.69332900
 O                0   36.36469700   35.78050200   56.46037900
 H                0   36.19463000   35.89848200   57.40059600
 H                0   35.70884700   35.09202000   56.13227800
 C               -1   28.89110100   31.74275800   47.31289000
 H                0   27.82967800   31.67447300   47.06753500
 H                0   29.24216000   32.75869000   47.12777500
 H                0   29.42591700   31.05312500   46.65579600
 C                0   32.10901300   30.67681900   51.54417800
 H                0   31.45728300   29.87163300   51.18853100
 H                0   32.71467900   31.04434400   50.71596900
 C               -1   29.96508100   35.88098400   50.49503400
 H                0   29.67846200   36.64159700   49.76977400
 H                0   29.17071600   35.13620900   50.55771900
 C               -1   36.29699700   36.66593800   49.99408700
 H                0   36.09841300   37.69461600   49.70085300
 H                0   36.74194800   36.13211600   49.15168700
 C                0   38.43505500   35.55556500   54.11122200
 H                0   39.39091200   35.33155600   54.58039400
 H                0   37.64771000   35.02397600   54.63744800
 C               -1   37.65896500   31.45513300   51.60107800
 H                0   38.51510200   30.98685200   52.08514400
 H                0   37.67525600   31.19575500   50.53868800
 C               -1   30.12400800   36.55297700   54.33100600
 H                0   31.00946100   36.05436200   54.72682200
 H                0   29.27451100   36.32385600   54.97491800
 C                0   29.77807000   40.29407300   54.67645200
 H                0   29.60404400   40.81897200   53.73334500
 H                0   29.15092600   40.75324000   55.43917500
 H                0   30.82665700   40.39033500   54.95828400
 C               -1   34.36206900   40.31194800   50.04424000
 H                0   33.73051900   41.17610300   49.82100900
 H                0   35.24841000   40.37831400   49.41057000
 H                0   33.81961800   39.40181400   49.77548500
 C               -1   35.51842100   43.19940700   55.11616100
 H                0   35.12853400   43.54240400   56.07438900
 H                0   35.88853000   42.17930300   55.23863400
 H                0   36.34584000   43.83508500   54.80023500
 C               -1   32.07836900   42.95278000   53.56682900
 H                0   31.77452800   41.90498700   53.62687700
 H                0   31.21686100   43.56629000   53.83732600
 H                0   32.37715900   43.19679500   52.54845900
 C               -1   31.23929600   44.92014800   57.81818300
 H                0   30.55496900   45.77141800   57.83603100
 H                0   31.74866200   44.87265900   58.78299900
 H                0   31.99334800   45.10109000   57.05241500
 C               -1   27.66697000   39.58998300   59.70000900
 H                0   28.19822000   40.44770200   60.11968200
 H                0   26.69661400   39.51058600   60.20115100
 C                0   27.43187700   39.87690100   58.22759400
 C                0   26.42957000   39.03531000   57.48390300
 H                0   26.32098700   38.04279100   57.92428700
 H                0   25.45528900   39.53261600   57.55335700
 H                0   26.71467000   38.96063300   56.43397600
 C               -1   37.61242900   39.72163000   58.72590600
 H                0   38.54556300   39.35816100   59.16878100
 N                0   36.52158900   38.85296300   59.16210700
 H                0   35.77554200   38.86876500   58.47161300
 C                0   37.67731600   41.29202000   60.77170000
 H                0   37.21350600   42.19279800   61.17000500
 H                0   37.38162300   40.41792700   61.35529000
 H                0   38.76706200   41.38065700   60.83801700
 C                0   37.28893800   41.09274800   59.33515900
 O                0   36.70237200   41.94589700   58.69197800
 C                0   36.90508000   37.48481600   59.48783000
 H                0   36.00100100   36.90896900   59.70001800
 H                0   37.47474200   36.98010100   58.69389800
 H                0   37.51888400   37.47005700   60.39278900


