%nprocshared=40
%mem=120GB
# M062X/6-311+g(2d,p) em=gd3 scrf=(solvent=diethylether) nosymm

1GRN_try

0 1
 C                0   -4.24764100    2.06515600    0.09377300
 O                0   -5.40546300    1.66117100    0.10309300
 N                0   -3.18905300    1.22125900   -0.07054100
 C                0   -3.68920000   -0.91468700   -1.38267900
 O                0   -4.16415900   -2.04360200   -1.35659500
 H                0   -2.25355800    1.54987000    0.12198400
 N                0   -3.37070000   -0.27326300   -2.54257000
 C                0   -2.29473600   -1.61863000   -4.40064700
 O                0   -2.33415500   -2.11620600   -5.52646600
 H                0   -2.89372700    0.61433700   -2.46352100
 N                0   -1.24581800   -1.74733000   -3.56243500
 C               -1   -0.15947100   -2.67036300   -3.81393700
 C                0    1.25010000   -2.08348500   -4.16503200
 O                0    2.10817000   -2.88208500   -4.53769600
 H                0   -1.28806200   -1.28924800   -2.66355400
 H                0   -0.01804600   -3.31697800   -2.95168200
 H                0   -0.43068200   -3.28499700   -4.67020400
 N                0    1.50389500   -0.74888100   -4.03634100
 C                0    3.82841800   -0.11024500   -3.24692600
 O                0    4.68707000    0.77131300   -3.14851500
 C                0    1.31955300    3.42525200   -2.87986000
 N                0    0.12047900    3.48926600   -1.99944000
 H                0    0.78198800   -0.16087900   -3.62809800
 H                0    1.80801600    2.47285900   -2.67794400
 H                0    1.97237900    4.24267200   -2.58633800
 H                0   -0.44865800    2.64586900   -2.16784600
 H                0    0.32196200    3.48410100   -0.95404700
 H                0   -0.39632600    4.34414100   -2.19183800
 N                0    3.80682100   -1.20468100   -2.47043600
 C               -1    4.96452600   -1.62845300   -1.72195500
 C                0    5.07474700   -3.19646200   -1.74210100
 O                0    5.82002300   -3.74106200   -0.93483000
 O                0    4.66626900    0.25187300   -0.17466000
 H                0    2.93336700   -1.69206000   -2.25801900
 H                0    5.84909500   -1.22689500   -2.22232800
 H                0    4.80678100    0.65715000   -1.05086500
 N                0    4.33419500   -3.84685500   -2.67022000
 C                0    2.84764400   -5.79615500   -2.17529800
 S                0    2.83957800   -5.94453400   -0.34417200
 H                0    3.71191300   -3.30534300   -3.26064800
 H                0    2.03753900   -5.13304800   -2.47565100
 H                0    2.63107500   -6.79996700   -2.54512900
 H                0    2.83790800   -4.62013000   -0.10213000
 C                0    4.12943800    3.17762900    2.83310600
 C                0    5.20821700    4.12261600    2.33328500
 O                0    4.29337100    1.87854700    2.16863500
 H                0    3.14044400    3.50859400    2.52676400
 H                0    5.22781100    1.64144400    2.14236300
 H                0    6.20293600    3.80601500    2.66714600
 H                0    5.20187600    4.15135300    1.24165800
 H                0    5.02598700    5.12972300    2.70515600
 C                0    0.98047600    6.31846900   -0.34360600
 O                0    1.27324800    6.12137900   -1.52784100
 N                0   -0.29536400    6.45688700    0.07657500
 H                0   -0.46055800    6.38150500    1.07848400
 C                0   -2.96812200    6.83919400    3.16572700
 C                0   -1.99309800    5.67960000    3.09045400
 N                0   -2.47337600    4.45329000    3.29274100
 O                0   -0.79502900    5.89817300    2.83134800
 H                0   -3.73639400    6.62366000    3.91274800
 H                0   -3.48829200    6.88461100    2.20120300
 H                0   -1.88065700    3.64147900    3.07817800
 H                0   -3.47147500    4.32147400    3.41896100
 C                0   -4.40953100   -5.46223400   -5.61041200
 N                0   -3.74874200   -4.58161700   -4.82711800
 O                0   -4.83314400   -6.54197700   -5.20875600
 H                0   -3.51162300   -4.81785200   -3.86922500
 H                0   -3.31875600   -3.75568700   -5.22358200
 O                0   -5.37945700    3.97090100    3.28607000
 C               -1   -5.03736400    1.55963600    5.55309700
 C                0   -3.72085600    1.51578900    4.77804400
 C                0   -2.91358400    0.26273200    5.10460800
 N                0   -1.86687600    0.08020600    4.10460600
 C                0   -1.46002000   -1.09973100    3.65608100
 N                0   -1.72030900   -2.22930300    4.34303300
 N                0   -0.83239000   -1.17720100    2.48606700
 H                0   -4.83977800    1.45835000    6.62501400
 H                0   -5.64011400    0.68908600    5.27227000
 H                0   -3.92092300    1.51988900    3.70217100
 H                0   -3.12211000    2.40554100    4.99159500
 H                0   -2.48638300    0.33644100    6.11063000
 H                0   -3.56980500   -0.61232300    5.08474900
 H                0   -1.51945300    0.90918600    3.58536600
 H                0   -1.90238700   -2.19307900    5.33191900
 H                0   -1.44386500   -3.11724200    3.95672300
 H                0   -0.76653400   -0.34935900    1.90333400
 H                0   -0.20875900   -1.94357800    2.22080200
 P                0    0.79828000   -2.63748700   -0.31171000
 P                0    0.31244300    0.28129600   -0.80172000
 P                0    0.16780200    2.19453300    1.54311300
 C                0   -1.64507100   -3.81034100   -0.29350500
 O                0   -0.26227400   -3.77152600   -0.69518000
 C                0   -2.25417900   -5.06852000   -0.87672100
 O                0   -2.17511300   -4.99642100   -2.32017900
 C                0   -1.53050900   -6.34995900   -0.46834100
 O                0   -2.45880800   -7.42290900   -0.39972700
 C                0   -0.56371900   -6.56384500   -1.64252400
 O                0   -0.18723700   -7.92791200   -1.80154900
 O                0    1.95758500   -2.76443100   -1.23970800
 O                0   -0.32956300    0.78738000   -2.06723000
 O                0    1.51614300    1.63800000    2.00402500
 O                0    1.06221600   -2.61438000    1.18363600
 O                0    1.81468700    0.43581300   -0.64849000
 O                0   -0.93640600    2.17364500    2.58346100
 O                0   -0.09879900   -1.29338400   -0.69405500
 O                0   -0.41545800    0.88222700    0.49820300
 O                0    0.23000300    3.38277900    0.60959800
 H                0    0.56370600   -8.09068500   -1.21912800
 H                0   -0.99889500   -6.23276000    0.48281300
 H                0   -3.30455700   -5.11557700   -0.57975500
 H                0   -1.98352400   -8.19865900   -0.73176000
 H                0    0.30617600   -5.92966900   -1.50383700
 H                0   -2.16824500   -2.95019800   -0.69630700
 H                0   -1.72137900   -3.81488000    0.79776500
 Mg               0    2.97128100    0.82713100    0.94318500
 O                0    1.29677200    4.35779600    3.58197900
 H                0    0.51221600    4.85459000    3.27707800
 H                0    1.92551900    5.01423900    3.90807300
 O                0    2.84473600   -0.91368000    2.06022300
 H                0    2.47040300   -0.63473600    2.90502500
 H                0    2.23111100   -1.63043100    1.72702300
 C               -1   -4.60434500   -5.01864100   -7.05496900
 H                0   -5.66441300   -5.09471100   -7.30357300
 H                0   -4.25940200   -4.00100500   -7.24224400
 H                0   -4.06286700   -5.70660900   -7.70838600
 C                0   -1.39891700   -6.09280400   -2.82568100
 H                0   -2.05466800   -6.89853300   -3.17206300
 H                0   -0.79843100   -5.73091200   -3.66006200
 C               -1   -3.53035100   -0.88042500   -3.87283300
 H                0   -3.81766500   -0.11886600   -4.59676600
 H                0   -4.32450600   -1.62553800   -3.81127900
 C               -1    2.80155500   -0.09545800   -4.37378300
 H                0    2.60247900    0.93119900   -4.67286900
 H                0    3.24568000   -0.63398000   -5.21351200
 C                0    4.95751700   -1.16974800   -0.26677300
 H                0    5.92324600   -1.36671800    0.19417400
 H                0    4.18677600   -1.69533900    0.28956700
 C               -1    4.16352000   -5.30626800   -2.76679200
 H                0    5.01387300   -5.77942000   -2.27732300
 H                0    4.18686100   -5.56241000   -3.82959100
 C               -1   -3.37152000   -0.20844800   -0.03685900
 H                0   -2.46195100   -0.66981900    0.34531500
 H                0   -4.19988500   -0.47172100    0.62106400
 C                0   -3.89192200    3.52639700    0.23937200
 H                0   -4.17965500    4.05218200   -0.67481100
 H                0   -4.47084100    3.93997300    1.06469400
 H                0   -2.83016900    3.68278100    0.42817000
 C               -1    0.86663000    3.55054900   -4.32363900
 H                0    0.37166700    4.51017900   -4.49262000
 H                0    1.72494100    3.49937400   -4.99641700
 H                0    0.17725600    2.74586300   -4.59347200
 C               -1    2.02297800    6.43800600    0.74830000
 H                0    1.97003400    7.41986200    1.22479100
 H                0    1.84139300    5.68244300    1.51561100
 H                0    3.01243900    6.29889000    0.31673900
 C               -1   -1.41708300    6.19138300   -0.80103000
 H                0   -1.71324100    5.13876400   -0.77220600
 H                0   -2.27825500    6.78504100   -0.48946500
 H                0   -1.15218200    6.47560300   -1.81909500
 C               -1   -2.25615000    8.15876500    3.45032000
 H                0   -2.97321100    8.98245900    3.47626600
 H                0   -1.73960600    8.12516800    4.41193700
 H                0   -1.51281600    8.37172600    2.68195800
 C               -1   -5.82848300    2.82857900    5.33213800
 H                0   -5.30094000    3.68503000    5.75883600
 H                0   -6.80315300    2.74479500    5.82297000
 C                0   -6.03860500    3.11506800    3.85572300
 C                0   -7.06450800    2.30315100    3.11049800
 H                0   -7.18327900    1.30641500    3.53941000
 H                0   -8.03020300    2.81346400    3.20243900
 H                0   -6.79695600    2.23586700    2.05569200
 C               -1    4.11700600    2.96023100    4.35805300
 H                0    5.01454200    2.39184000    4.62978700
 N                0    2.94485700    2.24114300    4.85019300
 H                0    2.14156100    2.47750100    4.27350700
 C                0    4.68518700    4.11638500    6.58125600
 H                0    4.41645600    4.98457600    7.18108800
 H                0    4.31580800    3.20129900    7.04649200
 H                0    5.77656300    4.04285400    6.51991300
 C                0    4.12826700    4.25329900    5.18761000
 O                0    3.67433400    5.30638300    4.77819800
 C                0    3.10556800    0.80932200    5.04180600
 H                0    2.12177000    0.36379000    5.20651500
 H                0    3.59334800    0.30203600    4.19821400
 H                0    3.70900100    0.60533800    5.93255000



