%nprocshared=40
%mem=120GB
# opt=(maxstep=5,notrust,GDIIS) freq B3LYP/6-311g(d,p) em=gd3bj scrf=(solvent=diethylether) nosymm

1GRN_try

0 1
 C                0   -4.16062400    2.08613100    0.15258500
 O                0   -5.33924700    1.71724500    0.17321200
 N                0   -3.13767300    1.20843300   -0.06816500
 C                0   -3.69864300   -0.90376300   -1.38665200
 O                0   -4.19232900   -2.03457700   -1.36843000
 H                0   -2.18096700    1.47094900    0.12574600
 N                0   -3.36857900   -0.26432300   -2.54836400
 C                0   -2.29045600   -1.61355100   -4.39856600
 O                0   -2.32481500   -2.11276500   -5.53395400
 H                0   -2.89445100    0.62702500   -2.47019500
 N                0   -1.24015300   -1.74195500   -3.55837600
 C               -1   -0.15947800   -2.67036700   -3.81393300
 C                0    1.25462400   -2.08427200   -4.15437700
 O                0    2.12230200   -2.89205300   -4.51656600
 H                0   -1.28012200   -1.28354500   -2.65697500
 H                0   -0.02385200   -3.32229400   -2.95057000
 H                0   -0.43708700   -3.27865500   -4.67656400
 N                0    1.50447600   -0.74564000   -4.03989300
 C                0    3.81996200   -0.10028300   -3.23374800
 O                0    4.67867200    0.79207500   -3.11905400
 C                0    1.32270200    3.46530300   -2.87575900
 N                0    0.12210800    3.49667800   -1.99278700
 H                0    0.79116700   -0.15659500   -3.60947100
 H                0    1.84355900    2.52969900   -2.65881900
 H                0    1.94642800    4.31171800   -2.58883400
 H                0   -0.39875900    2.61309500   -2.13494900
 H                0    0.34045200    3.54004900   -0.94385200
 H                0   -0.44170600    4.31699700   -2.21224700
 N                0    3.80334700   -1.20121400   -2.46226600
 C               -1    4.96451600   -1.62845400   -1.72195000
 C                0    5.06222300   -3.19638200   -1.73634400
 O                0    5.79905500   -3.74949500   -0.91388100
 O                0    4.70452600    0.26847000   -0.19143100
 H                0    2.92455900   -1.67767600   -2.24275600
 H                0    5.84702900   -1.22902500   -2.23519500
 H                0    4.78848200    0.65022000   -1.09307300
 N                0    4.32923500   -3.84721000   -2.67600100
 C                0    2.83455200   -5.79174900   -2.19631000
 S                0    2.77950800   -5.87216900   -0.35968000
 H                0    3.71694300   -3.30633500   -3.28275300
 H                0    2.02796800   -5.14324300   -2.54753300
 H                0    2.63082900   -6.81032200   -2.54129000
 H                0    2.74317100   -4.53850300   -0.17515100
 C                0    4.17130500    3.16539900    2.82909300
 C                0    5.27493600    4.09249100    2.34460800
 O                0    4.33136800    1.86227000    2.17373300
 H                0    3.19059800    3.50891800    2.49963700
 H                0    5.27046900    1.62487300    2.14624300
 H                0    6.26144100    3.75663300    2.69089500
 H                0    5.28480800    4.12443300    1.25036000
 H                0    5.10592600    5.10305300    2.71961000
 C                0    0.97682900    6.34185100   -0.34791500
 O                0    1.26597300    6.15554300   -1.54229000
 N                0   -0.30256800    6.48752700    0.07475100
 H                0   -0.46615500    6.39283400    1.07819700
 C                0   -2.96416000    6.83405200    3.18496900
 C                0   -1.97462900    5.68563900    3.12016500
 N                0   -2.43438500    4.45802100    3.37172900
 O                0   -0.77841500    5.91142000    2.82260700
 H                0   -3.72976500    6.61793300    3.93868600
 H                0   -3.49041800    6.86528300    2.21994300
 H                0   -1.83415100    3.66018400    3.12595100
 H                0   -3.43162500    4.31801800    3.51341400
 C                0   -4.45432700   -5.41960600   -5.58899900
 N                0   -3.80950600   -4.51379800   -4.81538000
 O                0   -4.88382900   -6.49617600   -5.16100200
 H                0   -3.56428700   -4.74333400   -3.85709800
 H                0   -3.36332100   -3.70012700   -5.22538600
 O                0   -5.33019100    4.00552100    3.30617100
 C               -1   -5.03736800    1.55962800    5.55308500
 C                0   -3.69914500    1.56194800    4.80686700
 C                0   -2.86028800    0.32284900    5.11408200
 N                0   -1.79349400    0.19292900    4.12654400
 C                0   -1.38931100   -0.97029400    3.61931400
 N                0   -1.65846600   -2.13177700    4.25502600
 N                0   -0.76630100   -0.99577900    2.44464200
 H                0   -4.86653700    1.43622200    6.62973000
 H                0   -5.62227400    0.68718300    5.23330000
 H                0   -3.87847400    1.59138200    3.72466400
 H                0   -3.12785200    2.46427900    5.05655700
 H                0   -2.45200800    0.37870000    6.13207900
 H                0   -3.49001800   -0.57302200    5.05891900
 H                0   -1.44856400    1.03329200    3.62862200
 H                0   -1.81019000   -2.13569300    5.25175300
 H                0   -1.35619100   -2.99813600    3.83440300
 H                0   -0.69422900   -0.13829100    1.90502600
 H                0   -0.16362800   -1.76973000    2.13715200
 P                0    0.77368900   -2.57532200   -0.28599200
 P                0    0.36472500    0.33798300   -0.82586200
 P                0    0.27555600    2.32733500    1.50882300
 C                0   -1.67206700   -3.74544700   -0.28625800
 O                0   -0.29575100   -3.69992400   -0.69872400
 C                0   -2.28257400   -5.00802400   -0.86712000
 O                0   -2.21615200   -4.92159800   -2.31020000
 C                0   -1.54347400   -6.28901100   -0.47341500
 O                0   -2.45738900   -7.36909000   -0.39324800
 C                0   -0.60055800   -6.49578100   -1.67006100
 O                0   -0.21755300   -7.85534900   -1.83099100
 O                0    1.94113100   -2.72238000   -1.21186800
 O                0   -0.26564600    0.80034800   -2.12620200
 O                0    1.59782800    1.70462000    1.97096500
 O                0    1.03564800   -2.58781900    1.21847400
 O                0    1.87825000    0.43880900   -0.68146500
 O                0   -0.85233600    2.28607600    2.53074200
 O                0   -0.12378100   -1.21904200   -0.64304300
 O                0   -0.35908800    1.03994100    0.42634800
 O                0    0.38311800    3.54197700    0.60031500
 H                0    0.53288800   -8.00606400   -1.23438500
 H                0   -0.98987600   -6.16397400    0.46998700
 H                0   -3.33227300   -5.05844200   -0.55473600
 H                0   -1.96484900   -8.13301000   -0.74671300
 H                0    0.26641200   -5.84768700   -1.55490200
 H                0   -2.20876500   -2.89195200   -0.69142700
 H                0   -1.74224100   -3.74670400    0.80844100
 Mg               0    3.00997000    0.83151200    0.92369900
 O                0    1.29937500    4.33909300    3.58020600
 H                0    0.51934800    4.84295100    3.25973200
 H                0    1.96904800    4.99745800    3.82276400
 O                0    2.89707800   -0.91253600    1.99643300
 H                0    2.63371500   -0.69518400    2.90273000
 H                0    2.22895900   -1.59611200    1.67442900
 C               -1   -4.60434700   -5.01864200   -7.05497500
 H                0   -5.57856600   -5.35018700   -7.41682700
 H                0   -4.49964000   -3.93965900   -7.21010400
 H                0   -3.83584200   -5.52858300   -7.64630800
 C                0   -1.46965800   -6.02961500   -2.83343800
 H                0   -2.14399200   -6.83353400   -3.15829500
 H                0   -0.89134900   -5.67753900   -3.69168300
 C               -1   -3.53036700   -0.88041600   -3.87283100
 H                0   -3.82843700   -0.12572400   -4.60421100
 H                0   -4.32246400   -1.63093900   -3.79827300
 C               -1    2.80154900   -0.09546200   -4.37377800
 H                0    2.60328300    0.93180800   -4.68298300
 H                0    3.25106300   -0.64288800   -5.20862500
 C                0    4.97975600   -1.15650800   -0.27084200
 H                0    5.95356600   -1.36115900    0.17818200
 H                0    4.21215400   -1.67222600    0.30305000
 C               -1    4.16351700   -5.30626700   -2.76678700
 H                0    5.00774800   -5.77345900   -2.25546900
 H                0    4.20773300   -5.57480200   -3.82903400
 C               -1   -3.37144000   -0.20842300   -0.03685900
 H                0   -2.48159500   -0.70730000    0.35592700
 H                0   -4.21675400   -0.44401400    0.61545900
 C                0   -3.74968900    3.53369100    0.32215900
 H                0   -3.93715300    4.07230100   -0.61387200
 H                0   -4.37274000    3.97929700    1.10043500
 H                0   -2.69681100    3.64128100    0.59538300
 C               -1    0.86662100    3.55054800   -4.32362500
 H                0    0.33067500    4.48738500   -4.51079300
 H                0    1.73035700    3.52401100   -4.99476000
 H                0    0.21021200    2.71193100   -4.58171800
 C               -1    2.02297300    6.43800700    0.74829600
 H                0    1.91406600    7.36960200    1.31511400
 H                0    1.88795600    5.60273700    1.44415200
 H                0    3.01796700    6.39678200    0.30172400
 C               -1   -1.41707900    6.19138000   -0.80103600
 H                0   -1.70967600    5.13604100   -0.74197800
 H                0   -2.28762500    6.79174000   -0.51900300
 H                0   -1.13836000    6.44513900   -1.82624600
 C               -1   -2.25615200    8.15874800    3.45031800
 H                0   -2.97389900    8.98460800    3.46945400
 H                0   -1.73306800    8.13781700    4.41134700
 H                0   -1.51398100    8.36040000    2.67426000
 C               -1   -5.82847800    2.82858300    5.33214400
 H                0   -5.30883700    3.68232900    5.78040100
 H                0   -6.81532100    2.73992200    5.80346900
 C                0   -6.00880900    3.13710600    3.85445900
 C                0   -7.02566800    2.34480300    3.07184900
 H                0   -7.19134200    1.35468400    3.50621100
 H                0   -7.98324900    2.88117800    3.11042200
 H                0   -6.70827100    2.26004500    2.02905000
 C               -1    4.11698100    2.96023000    4.35804100
 H                0    5.02164600    2.41760700    4.67128100
 N                0    2.94618200    2.21929200    4.81776700
 H                0    2.15414300    2.45523900    4.22352500
 C                0    4.47040600    4.14642200    6.61814400
 H                0    3.99050900    4.93208000    7.20526900
 H                0    4.21727200    3.16265900    7.01793500
 H                0    5.55802800    4.27782800    6.69153800
 C                0    4.07278500    4.26621300    5.16591200
 O                0    3.69538700    5.33165500    4.68984300
 C                0    3.12148500    0.78764000    4.98092700
 H                0    2.13889500    0.32390500    5.12100300
 H                0    3.63266500    0.29796500    4.13575000
 H                0    3.71601200    0.57024700    5.87811000




