%nprocshared=40
%mem=120GB
# M062X/6-311+g(2d,p) em=gd3 scrf=(solvent=diethylether) nosymm

1GRN_try

0 1
 C                0   -4.06939000    2.10854400    0.19326700
 O                0   -5.25704100    1.79580500    0.24013300
 N                0   -3.08409600    1.20277800   -0.03775000
 C                0   -3.71470200   -0.88398000   -1.39104700
 O                0   -4.25034600   -1.98589300   -1.37628000
 H                0   -2.10165700    1.42806300    0.13446300
 N                0   -3.35939200   -0.25765400   -2.54950400
 C                0   -2.33615900   -1.70661100   -4.35913700
 O                0   -2.43684900   -2.32226700   -5.42274900
 H                0   -2.82566900    0.59740400   -2.46986600
 N                0   -1.24788900   -1.74974200   -3.56867600
 C               -1   -0.15947700   -2.67036800   -3.81393400
 C                0    1.24623500   -2.07702600   -4.18057100
 O                0    2.09507400   -2.87200600   -4.58399300
 H                0   -1.21160700   -1.16684600   -2.74148800
 H                0   -0.00278700   -3.31035300   -2.94804200
 H                0   -0.43393500   -3.29675400   -4.65990600
 N                0    1.50255100   -0.74483300   -4.03640900
 C                0    3.82163700   -0.11054500   -3.23946100
 O                0    4.67666700    0.77546800   -3.13251000
 C                0    1.30684300    3.48871900   -2.86908900
 N                0    0.10586400    3.34285100   -1.99063900
 H                0    0.81878500   -0.17061500   -3.53989000
 H                0    1.93653500    2.62143000   -2.66956400
 H                0    1.82172200    4.39607700   -2.56518300
 H                0   -0.25894100    2.36072100   -2.10316300
 H                0    0.30154100    3.46889400   -0.97196000
 H                0   -0.60133500    4.03094800   -2.23988300
 N                0    3.80200400   -1.20576400   -2.46436900
 C               -1    4.96451500   -1.62845600   -1.72195000
 C                0    5.07825800   -3.19657600   -1.74877100
 O                0    5.83139800   -3.74136900   -0.94824200
 O                0    4.70752500    0.25201900   -0.17384900
 H                0    2.93224500   -1.70161100   -2.25010000
 H                0    5.84440000   -1.22783100   -2.23217000
 H                0    4.81954400    0.64936600   -1.05857800
 N                0    4.34052100   -3.84751500   -2.67858100
 C                0    2.87754500   -5.80906600   -2.12065000
 S                0    2.94772300   -5.97414800   -0.29139900
 H                0    3.70219800   -3.30703000   -3.25189300
 H                0    2.05076700   -5.14786800   -2.37439400
 H                0    2.65279500   -6.81173600   -2.48896400
 H                0    2.89768200   -4.65248000   -0.03766200
 C                0    4.43243100    3.08964900    2.83642900
 C                0    5.73331900    3.81241000    2.54091500
 O                0    4.44780800    1.78426700    2.17748400
 H                0    3.59552900    3.60894300    2.37600600
 H                0    5.35625500    1.47564400    2.08565300
 H                0    6.58352500    3.26635100    2.96472000
 H                0    5.88275400    3.91461600    1.46344600
 H                0    5.70656000    4.80646300    2.98381400
 C                0    0.96975400    6.37785700   -0.33502400
 O                0    1.27084100    6.22656800   -1.52179100
 N                0   -0.30951600    6.49532200    0.08463800
 H                0   -0.47432500    6.39227800    1.08032200
 C                0   -2.99423700    6.86388900    3.15078800
 C                0   -2.06230200    5.67670700    3.14017300
 N                0   -2.60738000    4.48320600    3.37509400
 O                0   -0.84645700    5.83826800    2.90201400
 H                0   -3.80594600    6.68317600    3.85967700
 H                0   -3.46170400    6.90525800    2.15941600
 H                0   -2.07988400    3.64391700    3.14958400
 H                0   -3.61661800    4.40069900    3.48108400
 C                0   -4.42490200   -5.61826400   -5.66548400
 N                0   -3.68430700   -4.87625900   -4.81570600
 O                0   -4.92381600   -6.70006100   -5.36676300
 H                0   -3.48003000   -5.20168800   -3.87808000
 H                0   -3.25259900   -4.00957300   -5.11387800
 O                0   -5.43797900    4.01117000    3.29956400
 C               -1   -5.03730200    1.55968000    5.55310100
 C                0   -3.75875300    1.47084600    4.72268600
 C                0   -3.04918100    0.13515300    4.91248600
 N                0   -1.96123700    0.03113200    3.95225300
 C                0   -1.43867500   -1.10529200    3.49679500
 N                0   -1.75709100   -2.28149300    4.07652500
 N                0   -0.63202800   -1.06803600    2.45205200
 H                0   -4.79701800    1.47821000    6.61732700
 H                0   -5.66396200    0.69228600    5.31764400
 H                0   -3.99330600    1.57486700    3.65842200
 H                0   -3.08099200    2.28955300    4.98335500
 H                0   -2.67759900    0.04481300    5.94030900
 H                0   -3.75585300   -0.68226200    4.73993200
 H                0   -1.57174100    0.88356900    3.53771600
 H                0   -2.09670000   -2.30405100    5.02361400
 H                0   -1.34934600   -3.12949800    3.71746400
 H                0   -0.57394100   -0.23182500    1.85201300
 H                0   -0.07749700   -1.87043000    2.13907900
 P                0    0.85280000   -2.68192400   -0.33771100
 P                0    0.32094300    0.24830000   -0.73892800
 P                0    0.48528500    2.76570600    1.91357100
 C                0   -1.61542200   -3.79701200   -0.40075400
 O                0   -0.20587500   -3.84279000   -0.68502900
 C                0   -2.22004000   -5.11387500   -0.84906800
 O                0   -2.12184600   -5.22439700   -2.28829700
 C                0   -1.50364900   -6.33581600   -0.27995600
 O                0   -2.42230900   -7.41063800   -0.14042500
 C                0   -0.48413900   -6.65646100   -1.38470900
 O                0   -0.09104800   -8.02585200   -1.38445900
 O                0    2.02311100   -2.85335900   -1.24969000
 O                0   -0.22361600    0.70021000   -2.10010500
 O                0    1.73259900    1.91541400    1.97874600
 O                0    1.13090100   -2.65325300    1.16330000
 O                0    1.84429100    0.37544600   -0.59749400
 O                0   -0.72858300    2.25892300    2.82775200
 O                0   -0.03466700   -1.37847600   -0.73990000
 O                0   -0.43497500    0.82510200    0.45862600
 O                0    0.18822400    3.62159100    0.72517400
 H                0    0.66988200   -8.10400300   -0.79706000
 H                0   -1.01409800   -6.11353900    0.67511200
 H                0   -3.27620700   -5.12409600   -0.57007300
 H                0   -1.91996400   -8.20799300   -0.36401300
 H                0    0.37598500   -6.00580600   -1.27167000
 H                0   -2.07324900   -2.98031900   -0.95253000
 H                0   -1.78229800   -3.65172000    0.67153800
 Mg               0    2.99899700    0.80684200    0.94936600
 O                0    0.76871100    3.85406400    3.31376900
 H                0   -0.14160800    3.07550100    3.60401900
 H                0    0.27265900    4.71588200    3.16107200
 O                0    2.87224400   -0.92965500    2.01601100
 H                0    2.98974700   -0.99526400    2.96739700
 H                0    2.22839800   -1.64569600    1.72225600
 C               -1   -4.60434700   -5.01864200   -7.05497500
 H                0   -5.66848400   -5.01344100   -7.29740400
 H                0   -4.20571400   -4.00695100   -7.13944200
 H                0   -4.10393900   -5.66284600   -7.78189000
 C                0   -1.26702700   -6.31894500   -2.64828900
 H                0   -1.86464100   -7.18137900   -2.96205000
 H                0   -0.63010000   -6.00060300   -3.47422300
 C               -1   -3.53037000   -0.88041700   -3.87282800
 H                0   -3.75027400   -0.11396100   -4.61587200
 H                0   -4.37396000   -1.56771500   -3.81672000
 C               -1    2.80154900   -0.09546200   -4.37377700
 H                0    2.60831100    0.93187800   -4.67509600
 H                0    3.24716300   -0.63884300   -5.20930000
 C                0    4.98002600   -1.17290800   -0.26958800
 H                0    5.95170400   -1.37954600    0.17519100
 H                0    4.21244300   -1.68881200    0.29835900
 C               -1    4.16351800   -5.30626700   -2.76678800
 H                0    5.03639000   -5.78054200   -2.31911000
 H                0    4.13964300   -5.55901600   -3.83037500
 C               -1   -3.37143500   -0.20842000   -0.03686700
 H                0   -2.49298400   -0.73260600    0.34213600
 H                0   -4.22181600   -0.42724700    0.60897800
 C                0   -3.60372100    3.53738400    0.36060600
 H                0   -3.81375800    4.08021000   -0.56503600
 H                0   -4.18898000    3.99952800    1.15321000
 H                0   -2.53913500    3.60976100    0.58166100
 C               -1    0.86662200    3.55055000   -4.32362900
 H                0    0.24339300    4.43033800   -4.50453400
 H                0    1.74022300    3.62429100   -4.97367200
 H                0    0.30554400    2.65663000   -4.60828000
 C               -1    2.02297600    6.43800200    0.74829200
 H                0    1.62846800    6.74800600    1.71579600
 H                0    2.45060800    5.43876600    0.85541500
 H                0    2.82022500    7.11539100    0.44014300
 C               -1   -1.41707500    6.19138500   -0.80103100
 H                0   -1.67261200    5.13039900   -0.76189300
 H                0   -2.29866300    6.76190900   -0.50451500
 H                0   -1.14320100    6.46869100   -1.81768100
 C               -1   -2.25615000    8.15874000    3.45031800
 H                0   -2.94739200    9.00397500    3.43542500
 H                0   -1.78393800    8.12348900    4.43449800
 H                0   -1.47493600    8.34235600    2.71253400
 C               -1   -5.82855900    2.82854200    5.33213800
 H                0   -5.29929800    3.68741200    5.75251000
 H                0   -6.79711400    2.74675200    5.83551900
 C                0   -6.06180700    3.12282800    3.86160800
 C                0   -7.06396700    2.29125800    3.10929100
 H                0   -7.18066800    1.29775500    3.54547900
 H                0   -8.03577600    2.79397100    3.17477300
 H                0   -6.77072600    2.22052800    2.06136700
 C               -1    4.11698200    2.96022400    4.35804000
 H                0    5.05363400    2.80876400    4.91125500
 N                0    3.21266700    1.86983400    4.69738100
 H                0    2.52725600    1.77346900    3.95385800
 C                0    2.79319600    4.26020800    6.17499500
 H                0    2.68677200    5.27377500    6.56025700
 H                0    1.80766100    3.83031100    5.98503300
 H                0    3.28574000    3.61188900    6.90200700
 C                0    3.54879100    4.30049200    4.87194700
 O                0    3.70732400    5.33393600    4.25523100
 C                0    3.85379500    0.59109800    4.97780500
 H                0    3.08205800   -0.14905000    5.20879500
 H                0    4.48174600    0.20556500    4.16081000
 H                0    4.48561400    0.67947900    5.86592500

