%nprocshared=40
%mem=120GB
# M062X/6-311+g(2d,p) em=gd3 scrf=(solvent=diethylether) nosymm

1GRN_try

0 1
 C                0   -4.36747100    2.01008900    0.06952200
 O                0   -5.50188400    1.55229300    0.19670500
 N                0   -3.27209300    1.22767200   -0.08376700
 C                0   -3.69497200   -0.92019900   -1.37971100
 O                0   -4.17452500   -2.04759400   -1.36087100
 H                0   -2.31218900    1.57809700   -0.01789300
 N                0   -3.37284200   -0.27765500   -2.54056100
 C                0   -2.29843700   -1.62618900   -4.40042500
 O                0   -2.34846100   -2.12847500   -5.52645700
 H                0   -2.90302900    0.61357300   -2.46397900
 N                0   -1.25266800   -1.75648000   -3.56585800
 C               -1   -0.15949000   -2.67035900   -3.81394000
 C                0    1.25338100   -2.08078900   -4.16955200
 O                0    2.10111700   -2.88810500   -4.55835800
 H                0   -1.27444000   -1.28776300   -2.67113900
 H                0   -0.01592900   -3.30962600   -2.94618300
 H                0   -0.42470100   -3.29258900   -4.66646600
 N                0    1.50945100   -0.75256200   -4.03359800
 C                0    3.85989600   -0.12722700   -3.28427200
 O                0    4.75650600    0.71883600   -3.24777500
 C                0    1.44500000    3.51593200   -2.91441200
 N                0    0.33229700    3.42642800   -1.92617900
 H                0    0.82116900   -0.16827600   -3.54342300
 H                0    2.07039200    2.63772700   -2.75620600
 H                0    2.01190800    4.41426300   -2.68392600
 H                0   -0.14110700    2.51087100   -2.08537900
 H                0    0.63503000    3.46062700   -0.90617300
 H                0   -0.30686800    4.20474600   -2.06560600
 N                0    3.81409200   -1.19746700   -2.47437700
 C               -1    4.96450800   -1.62844600   -1.72195000
 C                0    5.10717000   -3.19286100   -1.78530600
 O                0    5.91712600   -3.73724500   -1.04154100
 O                0    4.56485000    0.17408700   -0.06772500
 H                0    2.92699400   -1.64562500   -2.22956700
 H                0    5.85346100   -1.18339200   -2.17191600
 H                0    4.65059200    0.61351300   -0.92813100
 N                0    4.30991600   -3.84513900   -2.66408800
 C                0    2.86458700   -5.81784100   -2.16155000
 S                0    2.84705100   -5.84314400   -0.32457600
 H                0    3.65703400   -3.30630600   -3.22429300
 H                0    2.03015000   -5.20839500   -2.50652300
 H                0    2.69380000   -6.84797400   -2.47888000
 H                0    2.71228900   -4.50577600   -0.20001600
 C                0    4.39517500    3.00180300    2.83475000
 C                0    5.73456500    3.62828500    2.48960400
 O                0    4.30767100    1.67207400    2.24955100
 H                0    3.60177000    3.56408700    2.35174600
 H                0    5.18556600    1.34688200    2.01867700
 H                0    6.55595000    3.04837500    2.92314600
 H                0    5.86951700    3.67550100    1.40673800
 H                0    5.78746900    4.64419600    2.88101300
 C                0    0.97112400    6.36709600   -0.32817700
 O                0    1.25963000    6.24406300   -1.51808100
 N                0   -0.31370100    6.46855600    0.09528300
 H                0   -0.47708800    6.36710000    1.08512200
 C                0   -3.15874500    6.95538600    3.16674400
 C                0   -2.44481500    5.64320500    3.05493000
 N                0   -3.07676300    4.50900800    2.99845200
 O                0   -1.14921500    5.66257900    2.98177800
 H                0   -3.93342600    6.84628300    3.93072200
 H                0   -3.69477800    7.09141100    2.22047700
 H                0   -2.50608900    3.67715200    2.79624000
 H                0   -4.09649200    4.44379200    3.10198800
 C                0   -4.40715800   -5.46762000   -5.61199400
 N                0   -3.74943600   -4.58899400   -4.82533600
 O                0   -4.82852500   -6.55096500   -5.21607700
 H                0   -3.51196400   -4.82807900   -3.86800000
 H                0   -3.32157400   -3.75848700   -5.21669600
 O                0   -5.76371700    3.93916800    3.21079500
 C               -1   -5.03739800    1.55959100    5.55306200
 C                0   -3.76054000    1.59435400    4.70127100
 C                0   -2.69188000    0.58792600    5.10620400
 N                0   -1.62569700    0.57051200    4.10378500
 C                0   -1.17114900   -0.55592800    3.54197400
 N                0   -1.31456300   -1.73748700    4.19635200
 N                0   -0.62949500   -0.54072600    2.34894700
 H                0   -4.78071900    1.49004100    6.61433700
 H                0   -5.62767900    0.67155700    5.31287500
 H                0   -4.01426700    1.42035700    3.65017200
 H                0   -3.32507400    2.59600100    4.76280100
 H                0   -2.29234800    0.83558900    6.09490500
 H                0   -3.12657200   -0.41160500    5.16293000
 H                0   -1.38244500    1.44003800    3.61434300
 H                0   -1.31949300   -1.73893300    5.20360300
 H                0   -0.92401600   -2.55787700    3.75842900
 H                0   -0.63471200    0.28822600    1.73377000
 H                0   -0.11610800   -1.35659200    1.99237800
 P                0    0.72398600   -2.54469000   -0.31757500
 P                0    0.25005000    0.36951400   -0.85830900
 P                0    0.65999700    3.06119200    2.02375800
 C                0   -1.65712100   -3.81103300   -0.29131200
 O                0   -0.27649100   -3.75020800   -0.68443800
 C                0   -2.25239200   -5.07367600   -0.87769000
 O                0   -2.17585800   -4.99371400   -2.32159200
 C                0   -1.51445800   -6.34809700   -0.47695800
 O                0   -2.42689800   -7.43703100   -0.42561000
 C                0   -0.53803600   -6.53461200   -1.64629100
 O                0   -0.13169700   -7.89025600   -1.81122800
 O                0    1.95440800   -2.73044200   -1.14802400
 O                0   -0.09788400    0.77763300   -2.29193500
 O                0    1.46790800    1.77032500    2.28554300
 O                0    0.89843000   -2.46916300    1.20012600
 O                0    1.75127600    0.40459900   -0.52917900
 O                0   -0.81149100    3.01331600    2.51526000
 O                0   -0.16083800   -1.26749000   -0.80663800
 O                0   -0.61881500    1.05622500    0.17958000
 O                0    0.93026500    3.65595000    0.64978100
 H                0    0.61848600   -8.03813900   -1.22378700
 H                0   -0.99147400   -6.23289400    0.47906900
 H                0   -3.30228900   -5.13501100   -0.58135200
 H                0   -1.93489600   -8.20156400   -0.75904700
 H                0    0.31675200   -5.88276000   -1.49725000
 H                0   -2.19581100   -2.96218700   -0.69452500
 H                0   -1.73893700   -3.82069400    0.80013600
 Mg               0    2.75339400    0.79717300    1.10861300
 O                0    1.19750600    4.16651500    3.14244000
 H                0   -0.79161600    4.71741700    2.92805400
 H                0    2.03359000    4.61612800    2.96646300
 O                0    2.80345300   -0.98498400    2.12572300
 H                0    2.73231900   -0.93884100    3.08393400
 H                0    2.11573200   -1.64354800    1.80151100
 C               -1   -4.60433400   -5.01863000   -7.05496800
 H                0   -5.66601500   -5.08612400   -7.29963800
 H                0   -4.25250400   -4.00302600   -7.24043000
 H                0   -4.07044700   -5.70885200   -7.71219600
 C                0   -1.37659900   -6.07142500   -2.83054400
 H                0   -2.01510400   -6.88754300   -3.18559800
 H                0   -0.77859800   -5.69329500   -3.65951600
 C               -1   -3.53038000   -0.88042500   -3.87282400
 H                0   -3.81005200   -0.11452500   -4.59538500
 H                0   -4.32956500   -1.62048000   -3.81619300
 C               -1    2.80154100   -0.09546700   -4.37376200
 H                0    2.59720700    0.93750000   -4.64806700
 H                0    3.23287800   -0.61026900   -5.23571700
 C                0    4.86819600   -1.23832700   -0.24122400
 H                0    5.80689900   -1.46075100    0.26306000
 H                0    4.06489900   -1.79801300    0.22917200
 C               -1    4.16351100   -5.30626500   -2.76678100
 H                0    5.02684600   -5.76334600   -2.28479100
 H                0    4.18079400   -5.56352000   -3.83003500
 C               -1   -3.37143600   -0.20839800   -0.03686800
 H                0   -2.41708300   -0.60567300    0.30468100
 H                0   -4.16091500   -0.52033300    0.64640800
 C                0   -4.10992400    3.50187400    0.03294300
 H                0   -4.35285900    3.87616400   -0.96527000
 H                0   -4.77511600    3.98681600    0.74606200
 H                0   -3.07249200    3.74995600    0.25685300
 C               -1    0.86656800    3.55057600   -4.32355000
 H                0    0.23660400    4.43313900   -4.46405400
 H                0    1.67159300    3.59638200   -5.05948200
 H                0    0.27171500    2.65577500   -4.52143800
 C               -1    2.02303400    6.43799900    0.74839500
 H                0    1.60932400    6.59645000    1.74365500
 H                0    2.56385600    5.49365600    0.73074200
 H                0    2.72007200    7.24553100    0.51431400
 C               -1   -1.41699800    6.19125800   -0.80113000
 H                0   -1.67947500    5.12797000   -0.80699600
 H                0   -2.30085100    6.75188000   -0.49141900
 H                0   -1.13903900    6.50280500   -1.80634900
 C               -1   -2.25616700    8.15875500    3.45034300
 H                0   -2.86809000    9.05876400    3.51728900
 H                0   -1.71705200    8.03755100    4.39083600
 H                0   -1.52450700    8.30246000    2.65445200
 C               -1   -5.82839800    2.82859800    5.33214200
 H                0   -5.24903300    3.69998800    5.64531200
 H                0   -6.75028500    2.80333200    5.92508600
 C                0   -6.22943500    3.02605500    3.88094500
 C                0   -7.21852700    2.07583400    3.26292100
 H                0   -7.35702100    1.16772500    3.84878100
 H                0   -8.18303600    2.59059100    3.19702800
 H                0   -6.89677800    1.83655200    2.24672600
 C               -1    4.11688900    2.96030800    4.35794300
 H                0    5.03166300    2.63269200    4.86751100
 N                0    3.03210800    2.08074000    4.77797200
 H                0    2.32713200    2.04182600    4.04340800
 C                0    3.84209400    4.54104300    6.37729800
 H                0    3.39648800    5.49348800    6.65965200
 H                0    3.31800700    3.71000300    6.85030200
 H                0    4.88426500    4.51529800    6.71366100
 C                0    3.80825100    4.37370600    4.88325900
 O                0    3.54200700    5.29493400    4.13264800
 C                0    3.44854100    0.73192400    5.14551900
 H                0    2.55667400    0.13548700    5.35560900
 H                0    4.04509200    0.22211100    4.37452300
 H                0    4.04501200    0.75574100    6.06230200


